-99 -99 000 000 -99 -99 000 000 -99 -99 -99 -99 -99 000 000 000 -99 -99 -99 -99 -99 000 -99 000 000 -99 000 000 000 -99 -99
-99 -99 -99 000 000 -99 000 000 000 -99 -99 -99 -99 000 000 000 -99 -99 -99 -99 000 000 000 000 000 000 000 000 000 -99 -99
-99 -99 -99 000 000 -99 -99 000 000 000 -99 -99 -99 -99 000 000 -99 -99 -99 000 000 000 000 000 000 000 000 000 000 -99 -99
-99 -99 -99 000 000 000 000 -99 000 000 -99 -99 000 -99 -99 -99 -99 -99 -99 000 000 000 000 000 000 000 000 000 -99 -99 -99
000 -99 000 000 000 000 000 000 000 000 -99 000 000 -99 -99 -99 -99 -99 -99 -99 000 000 000 000 000 000 000 000 -99 -99 -99
000 000 000 000 000 000 000 000 000 000 -99 000 000 000 -99 -99 000 -99 -99 -99 000 000 000 000 000 -99 -99 -99 -99 -99 -99
000 000 000 000 000 000 000 000 000 -99 -99 -99 000 000 -99 -99 000 000 -99 000 000 000 000 000 000 000 -99 -99 -99 -99 -99
000 000 000 000 000 000 000 000 000 -99 -99 -99 000 -99 -99 -99 000 000 000 000 000 000 000 -99 000 000 -99 -99 -99 -99 -99
000 -99 000 000 000 000 000 000 000 000 000 000 -99 -99 -99 -99 -99 000 000 000 000 -99 000 -99 000 000 -99 -99 -99 -99 -99
000 000 000 000 000 000 000 000 000 000 000 000 -99 -99 -99 000 -99 000 000 000 000 000 -99 -99 000 000 -99 -99 -99 000 -99
000 000 000 000 000 000 000 000 000 000 000 000 -99 -99 -99 000 -99 -99 000 000 000 000 -99 -99 -99 -99 -99 -99 -99 000 000
000 000 000 000 000 000 000 000 000 000 000 000 000 -99 -99 000 000 000 000 000 000 -99 -99 -99 000 -99 -99 000 000 000 000
000 000 000 000 000 000 000 000 000 000 000 000 000 -99 -99 000 000 000 000 000 000 -99 -99 -99 000 000 -99 -99 000 000 -99
000 000 000 000 000 000 000 000 000 -99 000 000 000 000 -99 000 000 -99 000 000 000 000 -99 -99 000 000 -99 -99 000 000 -99
000 000 000 000 000 000 000 000 -99 -99 -99 000 000 000 -99 -99 000 -99 000 000 000 000 -99 000 000 000 000 -99 000 000 -99
000 000 -99 000 000 000 000 000 000 -99 -99 -99 000 000 -99 -99 000 -99 -99 -99 -99 000 -99 000 000 000 000 -99 000 000 -99
000 000 -99 -99 000 000 000 000 000 -99 -99 -99 000 000 000 -99 000 -99 -99 -99 -99 000 000 -99 000 000 000 -99 000 000 000
000 000 000 -99 000 000 000 000 000 -99 -99 -99 -99 000 000 -99 000 -99 -99 -99 -99 -99 000 -99 000 000 -99 -99 -99 000 000
000 000 000 000 -99 -99 000 000 000 -99 -99 -99 -99 -99 000 000 000 000 -99 -99 -99 -99 000 -99 -99 -99 -99 -99 -99 000 000
000 000 000 000 -99 -99 000 000 000 -99 000 000 -99 -99 000 -99 000 000 -99 -99 000 -99 000 -99 -99 -99 -99 -99 -99 -99 000
000 000 000 000 000 000 -99 000 000 -99 000 -99 -99 -99 -99 -99 000 000 -99 -99 000 000 000 -99 -99 -99 -99 -99 -99 -99 -99
000 000 000 000 000 000 -99 000 000 -99 -99 -99 -99 -99 -99 -99 000 000 000 -99 000 000 000 -99 -99 -99 -99 -99 -99 -99 -99
000 000 000 000 000 000 000 000 -99 -99 -99 -99 -99 000 000 -99 000 000 000 -99 000 000 000 -99 -99 -99 -99 -99 -99 -99 -99
000 000 000 000 000 000 000 000 000 -99 -99 -99 -99 000 000 000 000 000 000 000 -99 000 -99 -99 -99 -99 -99 -99 -99 -99 -99
000 000 000 000 000 000 000 000 000 000 000 -99 000 000 000 000 000 000 000 000 000 000 -99 -99 -99 -99 -99 -99 -99 -99 -99
000 000 000 000 000 000 000 000 000 000 -99 -99 000 000 000 000 000 000 000 000 000 -99 -99 -99 -99 -99 -99 -99 -99 -99 000
000 000 000 000 000 000 000 000 000 -99 -99 -99 -99 -99 -99 -99 000 000 000 000 000 000 000 -99 -99 -99 -99 -99 -99 000 000
000 000 000 000 000 -99 000 000 -99 -99 -99 -99 -99 -99 -99 000 000 000 000 -99 000 000 000 -99 -99 -99 -99 -99 -99 000 000
000 000 000 000 000 000 000 000 -99 -99 -99 -99 -99 -99 000 000 000 000 000 -99 000 000 -99 -99 -99 -99 -99 -99 -99 000 -99
000 000 -99 -99 000 000 000 000 -99 -99 -99 -99 -99 -99 000 000 000 000 -99 -99 000 000 -99 -99 -99 -99 -99 -99 -99 -99 -99
-99 -99 000 000 000 000 000 000 -99 -99 -99 -99 -99 000 000 000 000 000 000 -99 000 000 -99 -99 -99 -99 -99 -99 -99 -99 -99
000 000 000 000 000 000 000 000 -99 -99 -99 -99 -99 000 000 000 000 000 000 -99 000 000 -99 -99 000 000 -99 -99 -99 -99 -99
000 000 000 000 000 000 000 000 -99 -99 -99 -99 -99 000 000 000 000 000 000 -99 -99 -99 000 000 000 000 -99 000 -99 -99 -99
000 000 000 000 000 000 000 000 000 -99 -99 -99 000 000 000 000 000 000 000 -99 -99 000 000 000 000 000 -99 000 000 -99 -99
000 000 000 000 000 000 000 000 000 000 -99 000 000 000 000 000 000 000 000 -99 000 000 000 000 000 000 000 000 000 -99 -99
000 000 000 000 000 000 -99 000 000 000 -99 000 000 000 000 000 000 000 000 000 000 000 000 000 000 000 000 000 000 000 000
000 000 000 000 000 -99 -99 000 000 000 -99 -99 000 000 000 000 000 000 000 000 000 000 000 -99 000 000 -99 -99 000 000 000
000 000 000 000 000 -99 -99 000 000 -99 -99 -99 -99 000 000 000 000 000 -99 -99 000 -99 -99 000 000 000 -99 -99 -99 000 -99
000 000 000 -99 -99 -99 -99 000 -99 -99 -99 -99 -99 000 000 000 000 000 000 -99 000 -99 -99 -99 000 -99 -99 -99 -99 -99 -99
000 -99 000 -99 -99 -99 -99 -99 -99 -99 -99 -99 000 000 000 000 000 000 000 -99 -99 -99 -99 000 -99 -99 000 -99 -99 000 -99
000 000 000 000 -99 -99 -99 000 -99 -99 -99 000 000 000 000 000 -99 -99 -99 -99 -99 -99 -99 -99 -99 000 000 -99 -99 000 000
003 000 002 000 000 -99 000 000 000 000 000 000 000 000 000 000 -99 -99 -99 -99 -99 -99 000 000 000 000 -99 -99 000 000 000
001 002 006 001 000 000 001 003 000 000 000 000 000 000 000 000 -99 -99 -99 -99 -99 000 000 000 000 000 -99 -99 000 000 -99
006 007 007 001 000 000 003 007 004 007 001 001 001 001 000 000 -99 000 000 000 000 -99 000 000 000 000 -99 -99 000 -99 -99
006 004 010 002 001 007 042 020 012 008 009 010 006 005 001 000 -99 000 000 000 000 -99 000 000 000 -99 -99 -99 000 -99 -99
002 006 007 005 004 016 065 032 034 014 017 013 009 010 002 000 000 000 000 000 -99 -99 000 000 000 -99 -99 -99 -99 -99 -99
003 004 006 013 008 024 029 024 025 035 030 015 011 015 008 001 000 000 000 000 -99 000 000 000 -99 -99 -99 -99 -99 -99 -99
001 004 007 017 013 014 010 024 039 056 021 023 021 034 016 001 000 000 000 000 000 000 000 000 -99 -99 -99 -99 000 -99 -99
000 003 011 008 002 001 003 013 030 054 054 042 039 051 022 001 000 000 000 000 000 000 000 -99 -99 -99 -99 000 000 -99 -99
001 007 005 002 000 000 003 021 034 064 058 075 081 071 010 002 001 000 000 000 000 000 000 -99 -99 -99 -99 000 000 -99 -99
001 003 001 000 000 000 002 005 029 062 054 066 060 066 012 004 003 000 000 000 000 000 000 -99 -99 -99 000 -99 000 -99 -99
000 000 000 000 000 000 000 002 028 031 013 019 021 011 009 016 014 000 000 000 000 000 000 -99 -99 -99 -99 -99 -99 -99 -99
000 000 -99 -99 000 000 000 000 004 007 001 001 005 009 011 024 007 002 000 000 000 001 000 -99 -99 -99 -99 -99 -99 -99 -99
000 000 000 000 000 000 000 001 001 000 000 002 009 021 016 022 009 002 000 -99 000 002 001 -99 -99 -99 -99 -99 -99 -99 -99
000 000 001 000 000 000 -99 001 000 000 000 002 018 046 018 022 035 002 001 000 001 002 -99 -99 -99 -99 -99 -99 -99 -99 -99
